p cnf 14 64
1 6 -13 0
7 -8 -10 0
9 -13 -14 0
-4 -9 -11 0
-9 11 -14 0
11 -12 13 0
4 5 -14 0
-1 -5 14 0
-5 -8 -13 0
6 11 12 0
2 3 12 0
1 2 12 0
-3 4 -11 0
5 -6 -7 0
-3 -10 14 0
-1 -3 12 0
-7 9 11 0
6 9 -14 0
1 -9 10 0
8 10 13 0
3 -5 7 0
1 5 6 0
-2 8 14 0
3 -8 11 0
2 -9 -10 0
1 -4 9 0
1 6 12 0
4 -12 14 0
-7 10 13 0
-3 -7 -11 0
-2 -3 -5 0
2 3 -4 0
-3 -8 9 0
-1 -2 11 0
-7 10 -13 0
4 7 -8 0
-5 -9 -10 0
9 13 14 0
7 -11 -13 0
-6 7 -13 0
-3 -6 -9 0
-3 5 -13 0
2 3 4 0
-1 -2 -8 0
-4 12 14 0
-5 -10 12 0
4 6 -14 0
2 -6 -12 0
4 -6 14 0
4 6 -7 0
-2 5 7 0
2 -3 -11 0
2 5 12 0
1 5 9 0
-4 8 10 0
1 11 14 0
-6 -7 14 0
4 -5 -9 0
2 -3 -4 0
-6 8 -12 0
-6 9 -13 0
-3 6 11 0
-3 -6 10 0
-7 -9 -13 0
